33 33
23
3 3 13 30
3 4 3 0
3 5 0 0
3 6 10 17
3 7 0 18
3 8 0 25
3 9 16 24
3 10 10 23
3 13 0 5
3 14 3 19
3 15 3 4
3 17 6 0
3 24 20 0
3 30 13 0
3 33 30 0
4 3 19 24
4 4 6 17
4 6 19 27
4 10 16 0
4 12 6 21
4 14 16 10
4 17 9 0
7 33 23 0
